9 75 59 18 47 89 14 78 41 91 97 71 53 84 98 7 67 5 99 20 36 12 95 49 88 50 3 85 6 17 4 27 70 40 74 48 87 43 44 73 83 2 39 82 1 10 64 66 56 68 80 94 79 21 24 60 8 22 93 11 51 26 19 57 65 28 62 42 46 33 15 77 92 30 29 69 76 90 25 72 16 31 86 23 34 54 61 58 96 0 13 45 55 37 32 35 81 63 52 38 

